language Essence 1.3

letting class be function(1 --> 3, 2 --> 2, 3 --> 1, 4 --> 3, 5 --> 3)
letting deck_length be 57
letting deck_width be 7
letting length be function(1 --> 9, 2 --> 20, 3 --> 13, 4 --> 1, 5 --> 1)
letting n_classes be 3
letting n_containers be 5
letting separation be function({1, 2} --> 37, {1, 3} --> 56)
letting width be function(1 --> 7, 2 --> 5, 3 --> 5, 4 --> 4, 5 --> 4)
